NAME : portgen-40-200
COMMENT : portgen N=40, seed=200
TYPE : TSP
DIMENSION : 40
EDGE_WEIGHT_TYPE : EUC_2D
NODE_COORD_SECTION
1 909 2847
2 2608 202
3 2628 3067
4 1123 2705
5 1858 1746
6 1320 716
7 1089 1312
8 2309 1175
9 1912 1302
10 1986 2894
11 972 624
12 1991 2460
13 1617 739
14 2650 1311
15 294 2986
16 1429 478
17 304 1059
18 2147 1265
19 2178 1176
20 512 178
21 3016 408
22 2500 249
23 1183 1511
24 1800 3006
25 1436 231
26 3095 1943
27 1067 2944
28 2578 430
29 2543 1548
30 1218 1363
31 888 3110
32 2193 1679
33 1893 911
34 1379 839
35 129 798
36 2537 2068
37 3029 1755
38 2961 2192
39 2720 2209
40 3045 1186
